150	32	4	67	
10	10	10	10

0	0	0	0	0	0	4	1	2	18	20
1	1	1	1	0	1	4	30	29	28	3
2	8	8	5	0	1	3	28	27	4
3	0	5	6	1	3	2	27	4
4	4	5	0	2	1	2	15	5
5	7	4	6	0	4	2	12	6
6	0	2	3	5	1	2	26	7
7	4	2	4	0	9	1	8
8	4	0	4	3	8	2	25	9
9	2	5	4	0	4	3	24	14	10
10	5	6	7	0	3	1	11
11	0	3	3	2	1	3	23	22	13
12	4	0	6	8	7	1	13
13	2	4	0	2	5	1	16
14	0	4	3	7	5	1	16
15	2	5	0	2	8	1	16
16	7	4	4	0	2	1	17
17	0	4	1	5	6	1	19
18	6	0	4	7	10	1	19
19	5	0	2	5	8	1	21
20	5	4	4	0	10	1	21
21	0	5	5	3	9	1	31
22	0	3	3	6	6	1	31
23	0	3	3	6	1	1	31
24	2	0	4	4	1	1	31
25	4	3	0	5	5	1	31
26	5	6	7	0	6	1	31
27	3	4	0	2	5	1	31
28	3	2	3	0	8	1	31
29	4	0	4	3	6	1	31
30	1	0	4	2	6	1	31
31	0	0	0	0	0	0
